Version identifier: 20.1.0.0 | 2020-11-10 | 9bedb6d68
Tried aggregator 3 times.
MIP Presolve eliminated 1423 rows and 784 columns.
MIP Presolve modified 3152 coefficients.
Aggregator did 133 substitutions.
Reduced MIP has 1793 rows, 1438 columns, and 5892 nonzeros.
Reduced MIP has 287 binaries, 1151 generals, 0 SOSs, and 0 indicators.
Presolve time = 0.02 sec. (8.89 ticks)
Found incumbent of value 3614.000000 after 0.04 sec. (16.25 ticks)
Probing fixed 40 vars, tightened 372 bounds.
Probing time = 0.00 sec. (1.28 ticks)
Tried aggregator 2 times.
Detecting symmetries...
MIP Presolve eliminated 782 rows and 96 columns.
MIP Presolve modified 163 coefficients.
Aggregator did 46 substitutions.
Reduced MIP has 965 rows, 1296 columns, and 3210 nonzeros.
Reduced MIP has 348 binaries, 948 generals, 0 SOSs, and 0 indicators.
Presolve time = 0.01 sec. (4.80 ticks)
Probing time = 0.00 sec. (0.34 ticks)
Clique table members: 125.
MIP emphasis: balance optimality and feasibility.
MIP search method: dynamic search.
Parallel mode: deterministic, using up to 24 threads.
Root relaxation solution time = 0.01 sec. (2.91 ticks)

        Nodes                                         Cuts/
   Node  Left     Objective  IInf  Best Integer    Best Bound    ItCnt     Gap

*     0+    0                         3614.0000        0.0000           100.00%
      0     0        0.0000    48     3614.0000        0.0000      314  100.00%
      0     0        1.1658   113     3614.0000     Cuts: 213      596   99.97%
      0     0        1.7468   164     3614.0000     Cuts: 215      876   99.95%
      0     0        2.0685   258     3614.0000      Cuts: 77      973   99.94%
      0     0        2.3396   138     3614.0000     Cuts: 100     1248   99.94%
      0     0        2.4085   315     3614.0000      Cuts: 45     1347   99.93%
*     0+    0                           30.0000        2.4085            91.97%
*     0+    0                           21.0000        2.4085            88.53%
      0     0        cutoff             21.0000       21.0000     1422    0.00%
Elapsed time = 0.68 sec. (102.59 ticks, tree = 0.01 MB, solutions = 3)

Implied bound cuts applied:  83
Flow cuts applied:  16
Mixed integer rounding cuts applied:  49
Zero-half cuts applied:  129
Lift and project cuts applied:  2
Gomory fractional cuts applied:  14

Root node processing (before b&c):
  Real time             =    0.68 sec. (102.71 ticks)
Parallel b&c, 24 threads:
  Real time             =    0.00 sec. (0.00 ticks)
  Sync time (average)   =    0.00 sec.
  Wait time (average)   =    0.00 sec.
                          ------------
Total (root+branch&cut) =    0.68 sec. (102.71 ticks)

Solution status = Optimal
Solution LB = 21
Solution UB = 21
Runtime = 0.685921 seconds
	Command being timed: "/home/min/git_repos/CS598MEBProject/CNT-ILP/build/cnt -s 2 ./output/k8_n20/simC_c1_k8_n20_u3_s2_del02.input-right.cnp"
	User time (seconds): 9.92
	System time (seconds): 0.09
	Percent of CPU this job got: 1374%
	Elapsed (wall clock) time (h:mm:ss or m:ss): 0:00.72
	Average shared text size (kbytes): 0
	Average unshared data size (kbytes): 0
	Average stack size (kbytes): 0
	Average total size (kbytes): 0
	Maximum resident set size (kbytes): 99880
	Average resident set size (kbytes): 0
	Major (requiring I/O) page faults: 0
	Minor (reclaiming a frame) page faults: 22148
	Voluntary context switches: 4747
	Involuntary context switches: 1576
	Swaps: 0
	File system inputs: 0
	File system outputs: 16
	Socket messages sent: 0
	Socket messages received: 0
	Signals delivered: 0
	Page size (bytes): 4096
	Exit status: 0
